7 8 -1 1 6 5 4 8 10 -1 
3 6 -1 2 7 7 0 5 8 -1 
-1 10 10 2 9 5 0 0 1 -1 
0 2 7 9 10 4 7 9 2 -1 
3 8 4 7 0 8 0 3 0 -1 
10 1 2 1 10 1 8 5 4 -1 
3 5 0 2 10 7 7 2 0 -1 
4 0 4 -1 5 -1 1 9 2 -1 
0 -1 2 7 1 2 0 5 6 -1 
1 1 10 -1 10 4 -1 3 -1 -1 
8 4 9 -1 5 5 8 1 6 -1 
6 9 0 2 10 5 0 0 0 -1 
8 6 5 10 8 4 5 4 3 -1 
9 4 2 2 9 -1 3 3 8 -1 
-1 8 7 7 7 6 6 10 10 -1 
9 2 10 7 7 1 5 6 -1 -1 
0 9 5 3 9 -1 6 8 4 -1 
-1 2 10 6 7 9 6 7 3 -1 
5 0 1 7 1 10 1 -1 3 -1 
8 3 7 4 5 3 8 8 8 -1 
4 2 9 6 5 3 9 2 6 -1 
1 5 6 1 10 10 10 10 5 -1 
8 7 6 0 -1 -1 10 2 10 -1 
1 -1 4 5 7 -1 0 1 -1 -1 
1 0 8 8 9 6 7 9 -1 -1 
4 5 8 2 10 -1 5 1 4 -1 
1 7 -1 6 0 2 -1 7 0 -1 
7 9 7 -1 6 0 0 1 4 -1 
7 -1 1 -1 -1 -1 4 2 10 -1 
8 10 3 9 5 0 10 3 9 -1 
-1 6 9 0 3 10 4 5 -1 -1 
4 7 2 5 10 9 9 4 10 -1 
5 0 6 8 0 -1 9 0 3 -1 
3 0 1 1 -1 5 4 -1 1 -1 
-1 1 5 6 4 8 -1 3 10 -1 
-1 8 4 6 1 9 0 2 1 -1 
5 2 -1 2 10 -1 6 5 5 -1 
9 9 1 -1 5 5 7 -1 10 -1 
6 6 5 10 5 10 0 0 5 -1 
9 4 9 6 9 6 9 5 7 -1 
3 7 0 0 8 4 4 7 3 -1 
4 4 4 8 9 9 5 7 0 -1 
10 3 7 4 0 4 3 9 5 -1 
5 4 2 -1 6 2 -1 10 -1 -1 
5 6 1 4 4 0 9 3 2 -1 
3 2 10 -1 1 5 2 1 7 -1 
1 3 3 6 7 5 -1 2 7 -1 
6 4 1 1 8 -1 5 1 5 -1 
3 4 8 9 -1 0 7 10 1 -1 
4 7 3 7 7 2 -1 7 1 -1 
